acell 38.7790698205 39.5859828761 37.7945225092
rprim
      1.00000000000  0.00000000000  0.00000000000
      0.00000000000  1.00000000000  0.00000000000
     -0.13614785480  0.00000000000  0.99068852907

ntypat 4
znucl  7 6 1 8

natom 24
typat  1  2  1  2  2  2  1  2  3  1  2  3  3  3  4  2
       3  3  3  4  2  3  3  3
xred
  0.67226493026  0.37918655719  0.056647471282
  0.67477216142  0.31218732099  0.05776790416
  0.61700047698  0.28054229521  0.034435646521
  0.56140726243  0.3146887531  0.010664300322
  0.56150965415  0.38000286424  0.011582853403
  0.61772800125  0.41780122207  0.033895618062
  0.49789604204  0.39660588123  -0.014570674411
  0.46551194882  0.34158869582  -0.029206959757
  0.4204223974  0.33980332251  -0.048224036716
  0.50241422066  0.28928298644  -0.014600956381
  0.7349854033  0.41187702883  0.079742520158
  0.75692800425  0.39082489975  0.12039101746
  0.72625917505  0.45661638343  0.089962684925
  0.76335097626  0.41002004965  0.044115782829
  0.72516230324  0.28374069124  0.078758356144
  0.61685385731  0.210292152  0.03358775137
  0.6392332352  0.19509261027  -0.0036338363616
  0.5714799805  0.19473458087  0.027374900591
  0.63985485332  0.19416650754  0.076446832458
  0.62141506781  0.47627458469  0.034910064046
  0.46965641707  0.46089841512  -0.02129327168
  0.4858996045  0.48309146458  -0.058853008074
  0.48258578711  0.48473362612  0.020581645393
  0.42166881343  0.45790051556  -0.030090183872


#ecut 100 eV

toldfe 0.00024 eV

chksymbreak 0
chkprim 0
